
%FILE DATA:	Soccer Computational Problem for MiniZinc Models	%
%AUTHOR:	Jack Wall	%
%CONTACT:  	116397063@umail.ucc.ie			%
%LAST UPDATE:	03/16/2020, 15:01:12						%
%DESCRIPTION: 	180 games played with 30 games left				%


n=15; %number of teams

%Games to play
games=[|10,6|2,5|15,11|8,4|1,13|7,15|8,12|10,14|8,3|15,8|10,11|12,1|9,11|7,9|9,14|12,10|12,3|1,5|13,15|2,15|4,7|11,1|4,9|6,13|2,12|14,8|5,13|3,5|6,9|2,13|];

%Initial points
iPoints=[35,31,34,33,37,34,39,26,31,29,37,20,35,41,27];

%POSITION CONSTRAINTS
% [|teamID, operator, position|...]
% operators index:
%  1 for =  operator
%  2 for >  operator
%  3 for >= operator
%  4 for <  operator
%  5 for <= operator
positionConstraints=[|14,3,1|13,3,2|7,4,4|11,3,4|];